<number of tasks>
20


<number of equipment>
5


<cycle time>
1000


<investment costs>
1,17642
2,17111
3,23976
4,27314
5,19343


<task times>
1,-1,314,159,114,-1
2,-1,187,-1,87,-1
3,290,302,-1,-1,255
4,-1,269,148,95,-1
5,262,258,-1,-1,223
6,251,212,-1,-1,208
7,226,219,-1,-1,195
8,-1,257,131,111,-1
9,-1,272,152,103,-1
10,240,250,-1,-1,212
11,-1,147,147,82,-1
12,264,274,-1,-1,257
13,228,131,-1,-1,203
14,272,281,-1,-1,258
15,248,214,-1,-1,234
16,-1,266,-1,149,-1
17,-1,289,-1,222,-1
18,-1,300,196,195,-1
19,-1,221,132,95,-1
20,345,354,-1,-1,284


<precedence relations>
1,8
2,8
3,8
4,8
5,10
6,11
7,9
8,12
8,13
8,14
8,15
10,17
11,16
17,18
18,19
18,20


<task types>
1,2
2,1
3,3
4,2
5,3
6,3
7,3
8,2
9,2
10,3
11,2
12,3
13,3
14,3
15,3
16,1
17,1
18,2
19,2
20,3


<line depot>
1,0
2,6
3,0
4,0
5,0


<processing costs>
1,7200
2,21600
3,7200
4,14400
5,7200


<saving costs>
1,1764
2,1711
3,2397
4,2731
5,1934


<end>
